Y16 O24
1.0
        9.2698402405         0.0000000000         0.0000000000
       -3.0899457797         8.7396895347         0.0000000000
       -3.0899457797        -4.3698427158         7.5687943426
    Y    O
   16   24
Direct
     0.717317998         0.750000000         0.467317998
     0.250000000         0.032682002         0.782682002
     0.467317998         0.717317998         0.750000000
     0.750000000         0.467317998         0.717317998
     0.032682002         0.782682002         0.250000000
     0.782682002         0.250000000         0.032682002
     0.282682002         0.250000000         0.532682002
     0.750000000         0.967317998         0.217317998
     0.532682002         0.282682002         0.250000000
     0.250000000         0.532682002         0.282682002
     0.967317998         0.217317998         0.750000000
     0.217317998         0.750000000         0.967317998
     0.500000000         0.500000000         0.000000000
     0.000000000         0.000000000         0.000000000
     0.000000000         0.500000000         0.500000000
     0.500000000         0.000000000         0.500000000
     0.229254007         0.271876991         0.760719001
     0.011158000         0.468535006         0.739280999
     0.270745993         0.031465001         0.042622998
     0.739280999         0.011158000         0.468535006
     0.271876991         0.760719001         0.229254007
     0.228122994         0.457376987         0.488842010
     0.457376987         0.488842010         0.228122994
     0.468535006         0.739280999         0.011158000
     0.042622998         0.270745993         0.031465001
     0.031465001         0.042622998         0.270745993
     0.760719001         0.229254007         0.271876991
     0.488842010         0.228122994         0.457376987
     0.770745993         0.728123009         0.239280999
     0.988842010         0.531464994         0.260719001
     0.729254007         0.968535006         0.957377017
     0.260719001         0.988842010         0.531464994
     0.511157990         0.771876991         0.542622983
     0.239280999         0.770745993         0.728123009
     0.968535006         0.957377017         0.729254007
     0.957377017         0.729254007         0.968535006
     0.531464994         0.260719001         0.988842010
     0.542622983         0.511157990         0.771876991
     0.771876991         0.542622983         0.511157990
     0.728123009         0.239280999         0.770745993
