Cl Na 
 1.0000000000000000
    56.9169399999999968    0.0000000000000000    0.0000000000000000
     0.0000000000000000   56.9169399999999968    0.0000000000000000
     0.0000000000000000    0.0000000000000000   56.9169399999999968
 Cl  Na 
 4000 4000
Direct
  0.0500000000000000  0.0000000000000000  0.0000000000000000
  0.0500000000000000  0.0500000000000000  0.0500000000000000
  0.0000000000000000  0.0000000000000000  0.0500000000000000
  0.0000000000000000  0.0500000000000000  0.0000000000000000
  0.0500000000000000  0.0000000000000000  0.1000000000000000
  0.0500000000000000  0.0500000000000000  0.1500000000000000
  0.0000000000000000  0.0000000000000000  0.1500000000000000
  0.0000000000000000  0.0500000000000000  0.1000000000000000
  0.0500000000000000  0.0000000000000000  0.2000000000000000
  0.0500000000000000  0.0500000000000000  0.2500000000000000
  0.0000000000000000  0.0000000000000000  0.2500000000000000
  0.0000000000000000  0.0500000000000000  0.2000000000000000
  0.0500000000000000  0.0000000000000000  0.3000000000000001
  0.0500000000000000  0.0500000000000000  0.3500000000000001
  0.0000000000000000  0.0000000000000000  0.3500000000000001
  0.0000000000000000  0.0500000000000000  0.3000000000000001
  0.0500000000000000  0.0000000000000000  0.4000000000000001
  0.0500000000000000  0.0500000000000000  0.4500000000000001
  0.0000000000000000  0.0000000000000000  0.4500000000000001
  0.0000000000000000  0.0500000000000000  0.4000000000000001
  0.0500000000000000  0.0000000000000000  0.5000000000000000
  0.0500000000000000  0.0500000000000000  0.5500000000000000
  0.0000000000000000  0.0000000000000000  0.5500000000000000
  0.0000000000000000  0.0500000000000000  0.5000000000000000
  0.0500000000000000  0.0000000000000000  0.6000000000000002
  0.0500000000000000  0.0500000000000000  0.6500000000000001
  0.0000000000000000  0.0000000000000000  0.6500000000000001
  0.0000000000000000  0.0500000000000000  0.6000000000000002
  0.0500000000000000  0.0000000000000000  0.7000000000000002
  0.0500000000000000  0.0500000000000000  0.7500000000000001
  0.0000000000000000  0.0000000000000000  0.7500000000000001
  0.0000000000000000  0.0500000000000000  0.7000000000000002
  0.0500000000000000  0.0000000000000000  0.8000000000000002
  0.0500000000000000  0.0500000000000000  0.8500000000000001
  0.0000000000000000  0.0000000000000000  0.8500000000000001
  0.0000000000000000  0.0500000000000000  0.8000000000000002
  0.0500000000000000  0.0000000000000000  0.9000000000000001
  0.0500000000000000  0.0500000000000000  0.9500000000000001
  0.0000000000000000  0.0000000000000000  0.9500000000000001
  0.0000000000000000  0.0500000000000000  0.9000000000000001
  0.0500000000000000  0.1000000000000000  0.0000000000000000
  0.0500000000000000  0.1500000000000000  0.0500000000000000
  0.0000000000000000  0.1000000000000000  0.0500000000000000
  0.0000000000000000  0.1500000000000000  0.0000000000000000
  0.0500000000000000  0.1000000000000000  0.1000000000000000
  0.0500000000000000  0.1500000000000000  0.1500000000000000
  0.0000000000000000  0.1000000000000000  0.1500000000000000
  0.0000000000000000  0.1500000000000000  0.1000000000000000
  0.0500000000000000  0.1000000000000000  0.2000000000000000
  0.0500000000000000  0.1500000000000000  0.2500000000000000
  0.0000000000000000  0.1000000000000000  0.2500000000000000
  0.0000000000000000  0.1500000000000000  0.2000000000000000
  0.0500000000000000  0.1000000000000000  0.3000000000000001
  0.0500000000000000  0.1500000000000000  0.3500000000000001
  0.0000000000000000  0.1000000000000000  0.3500000000000001
  0.0000000000000000  0.1500000000000000  0.3000000000000001
  0.0500000000000000  0.1000000000000000  0.4000000000000001
  0.0500000000000000  0.1500000000000000  0.4500000000000001
  0.0000000000000000  0.1000000000000000  0.4500000000000001
  0.0000000000000000  0.1500000000000000  0.4000000000000001
  0.0500000000000000  0.1000000000000000  0.5000000000000000
  0.0500000000000000  0.1500000000000000  0.5500000000000000
  0.0000000000000000  0.1000000000000000  0.5500000000000000
  0.0000000000000000  0.1500000000000000  0.5000000000000000
  0.0500000000000000  0.1000000000000000  0.6000000000000002
  0.0500000000000000  0.1500000000000000  0.6500000000000001
  0.0000000000000000  0.1000000000000000  0.6500000000000001
  0.0000000000000000  0.1500000000000000  0.6000000000000002
  0.0500000000000000  0.1000000000000000  0.7000000000000002
  0.0500000000000000  0.1500000000000000  0.7500000000000001
  0.0000000000000000  0.1000000000000000  0.7500000000000001
  0.0000000000000000  0.1500000000000000  0.7000000000000002
  0.0500000000000000  0.1000000000000000  0.8000000000000002
  0.0500000000000000  0.1500000000000000  0.8500000000000001
  0.0000000000000000  0.1000000000000000  0.8500000000000001
  0.0000000000000000  0.1500000000000000  0.8000000000000002
  0.0500000000000000  0.1000000000000000  0.9000000000000001
  0.0500000000000000  0.1500000000000000  0.9500000000000001
  0.0000000000000000  0.1000000000000000  0.9500000000000001
  0.0000000000000000  0.1500000000000000  0.9000000000000001
  0.0500000000000000  0.2000000000000000  0.0000000000000000
  0.0500000000000000  0.2500000000000000  0.0500000000000000
  0.0000000000000000  0.2000000000000000  0.0500000000000000
  0.0000000000000000  0.2500000000000000  0.0000000000000000
  0.0500000000000000  0.2000000000000000  0.1000000000000000
  0.0500000000000000  0.2500000000000000  0.1500000000000000
  0.0000000000000000  0.2000000000000000  0.1500000000000000
  0.0000000000000000  0.2500000000000000  0.1000000000000000
  0.0500000000000000  0.2000000000000000  0.2000000000000000
  0.0500000000000000  0.2500000000000000  0.2500000000000000
  0.0000000000000000  0.2000000000000000  0.2500000000000000
  0.0000000000000000  0.2500000000000000  0.2000000000000000
  0.0500000000000000  0.2000000000000000  0.3000000000000001
  0.0500000000000000  0.2500000000000000  0.3500000000000001
  0.0000000000000000  0.2000000000000000  0.3500000000000001
  0.0000000000000000  0.2500000000000000  0.3000000000000001
  0.0500000000000000  0.2000000000000000  0.4000000000000001
  0.0500000000000000  0.2500000000000000  0.4500000000000001
  0.0000000000000000  0.2000000000000000  0.4500000000000001
  0.0000000000000000  0.2500000000000000  0.4000000000000001
  0.0500000000000000  0.2000000000000000  0.5000000000000000
  0.0500000000000000  0.2500000000000000  0.5500000000000000
  0.0000000000000000  0.2000000000000000  0.5500000000000000
  0.0000000000000000  0.2500000000000000  0.5000000000000000
  0.0500000000000000  0.2000000000000000  0.6000000000000002
  0.0500000000000000  0.2500000000000000  0.6500000000000001
  0.0000000000000000  0.2000000000000000  0.6500000000000001
  0.0000000000000000  0.2500000000000000  0.6000000000000002
  0.0500000000000000  0.2000000000000000  0.7000000000000002
  0.0500000000000000  0.2500000000000000  0.7500000000000001
  0.0000000000000000  0.2000000000000000  0.7500000000000001
  0.0000000000000000  0.2500000000000000  0.7000000000000002
  0.0500000000000000  0.2000000000000000  0.8000000000000002
  0.0500000000000000  0.2500000000000000  0.8500000000000001
  0.0000000000000000  0.2000000000000000  0.8500000000000001
  0.0000000000000000  0.2500000000000000  0.8000000000000002
  0.0500000000000000  0.2000000000000000  0.9000000000000001
  0.0500000000000000  0.2500000000000000  0.9500000000000001
  0.0000000000000000  0.2000000000000000  0.9500000000000001
  0.0000000000000000  0.2500000000000000  0.9000000000000001
  0.0500000000000000  0.3000000000000001  0.0000000000000000
  0.0500000000000000  0.3500000000000001  0.0500000000000000
  0.0000000000000000  0.3000000000000001  0.0500000000000000
  0.0000000000000000  0.3500000000000001  0.0000000000000000
  0.0500000000000000  0.3000000000000001  0.1000000000000000
  0.0500000000000000  0.3500000000000001  0.1500000000000000
  0.0000000000000000  0.3000000000000001  0.1500000000000000
  0.0000000000000000  0.3500000000000001  0.1000000000000000
  0.0500000000000000  0.3000000000000001  0.2000000000000000
  0.0500000000000000  0.3500000000000001  0.2500000000000000
  0.0000000000000000  0.3000000000000001  0.2500000000000000
  0.0000000000000000  0.3500000000000001  0.2000000000000000
  0.0500000000000000  0.3000000000000001  0.3000000000000001
  0.0500000000000000  0.3500000000000001  0.3500000000000001
  0.0000000000000000  0.3000000000000001  0.3500000000000001
  0.0000000000000000  0.3500000000000001  0.3000000000000001
  0.0500000000000000  0.3000000000000001  0.4000000000000001
  0.0500000000000000  0.3500000000000001  0.4500000000000001
  0.0000000000000000  0.3000000000000001  0.4500000000000001
  0.0000000000000000  0.3500000000000001  0.4000000000000001
  0.0500000000000000  0.3000000000000001  0.5000000000000000
  0.0500000000000000  0.3500000000000001  0.5500000000000000
  0.0000000000000000  0.3000000000000001  0.5500000000000000
  0.0000000000000000  0.3500000000000001  0.5000000000000000
  0.0500000000000000  0.3000000000000001  0.6000000000000002
  0.0500000000000000  0.3500000000000001  0.6500000000000001
  0.0000000000000000  0.3000000000000001  0.6500000000000001
  0.0000000000000000  0.3500000000000001  0.6000000000000002
  0.0500000000000000  0.3000000000000001  0.7000000000000002
  0.0500000000000000  0.3500000000000001  0.7500000000000001
  0.0000000000000000  0.3000000000000001  0.7500000000000001
  0.0000000000000000  0.3500000000000001  0.7000000000000002
  0.0500000000000000  0.3000000000000001  0.8000000000000002
  0.0500000000000000  0.3500000000000001  0.8500000000000001
  0.0000000000000000  0.3000000000000001  0.8500000000000001
  0.0000000000000000  0.3500000000000001  0.8000000000000002
  0.0500000000000000  0.3000000000000001  0.9000000000000001
  0.0500000000000000  0.3500000000000001  0.9500000000000001
  0.0000000000000000  0.3000000000000001  0.9500000000000001
  0.0000000000000000  0.3500000000000001  0.9000000000000001
  0.0500000000000000  0.4000000000000001  0.0000000000000000
  0.0500000000000000  0.4500000000000001  0.0500000000000000
  0.0000000000000000  0.4000000000000001  0.0500000000000000
  0.0000000000000000  0.4500000000000001  0.0000000000000000
  0.0500000000000000  0.4000000000000001  0.1000000000000000
  0.0500000000000000  0.4500000000000001  0.1500000000000000
  0.0000000000000000  0.4000000000000001  0.1500000000000000
  0.0000000000000000  0.4500000000000001  0.1000000000000000
  0.0500000000000000  0.4000000000000001  0.2000000000000000
  0.0500000000000000  0.4500000000000001  0.2500000000000000
  0.0000000000000000  0.4000000000000001  0.2500000000000000
  0.0000000000000000  0.4500000000000001  0.2000000000000000
  0.0500000000000000  0.4000000000000001  0.3000000000000001
  0.0500000000000000  0.4500000000000001  0.3500000000000001
  0.0000000000000000  0.4000000000000001  0.3500000000000001
  0.0000000000000000  0.4500000000000001  0.3000000000000001
  0.0500000000000000  0.4000000000000001  0.4000000000000001
  0.0500000000000000  0.4500000000000001  0.4500000000000001
  0.0000000000000000  0.4000000000000001  0.4500000000000001
  0.0000000000000000  0.4500000000000001  0.4000000000000001
  0.0500000000000000  0.4000000000000001  0.5000000000000000
  0.0500000000000000  0.4500000000000001  0.5500000000000000
  0.0000000000000000  0.4000000000000001  0.5500000000000000
  0.0000000000000000  0.4500000000000001  0.5000000000000000
  0.0500000000000000  0.4000000000000001  0.6000000000000002
  0.0500000000000000  0.4500000000000001  0.6500000000000001
  0.0000000000000000  0.4000000000000001  0.6500000000000001
  0.0000000000000000  0.4500000000000001  0.6000000000000002
  0.0500000000000000  0.4000000000000001  0.7000000000000002
  0.0500000000000000  0.4500000000000001  0.7500000000000001
  0.0000000000000000  0.4000000000000001  0.7500000000000001
  0.0000000000000000  0.4500000000000001  0.7000000000000002
  0.0500000000000000  0.4000000000000001  0.8000000000000002
  0.0500000000000000  0.4500000000000001  0.8500000000000001
  0.0000000000000000  0.4000000000000001  0.8500000000000001
  0.0000000000000000  0.4500000000000001  0.8000000000000002
  0.0500000000000000  0.4000000000000001  0.9000000000000001
  0.0500000000000000  0.4500000000000001  0.9500000000000001
  0.0000000000000000  0.4000000000000001  0.9500000000000001
  0.0000000000000000  0.4500000000000001  0.9000000000000001
  0.0500000000000000  0.5000000000000000  0.0000000000000000
  0.0500000000000000  0.5500000000000000  0.0500000000000000
  0.0000000000000000  0.5000000000000000  0.0500000000000000
  0.0000000000000000  0.5500000000000000  0.0000000000000000
  0.0500000000000000  0.5000000000000000  0.1000000000000000
  0.0500000000000000  0.5500000000000000  0.1500000000000000
  0.0000000000000000  0.5000000000000000  0.1500000000000000
  0.0000000000000000  0.5500000000000000  0.1000000000000000
  0.0500000000000000  0.5000000000000000  0.2000000000000000
  0.0500000000000000  0.5500000000000000  0.2500000000000000
  0.0000000000000000  0.5000000000000000  0.2500000000000000
  0.0000000000000000  0.5500000000000000  0.2000000000000000
  0.0500000000000000  0.5000000000000000  0.3000000000000001
  0.0500000000000000  0.5500000000000000  0.3500000000000001
  0.0000000000000000  0.5000000000000000  0.3500000000000001
  0.0000000000000000  0.5500000000000000  0.3000000000000001
  0.0500000000000000  0.5000000000000000  0.4000000000000001
  0.0500000000000000  0.5500000000000000  0.4500000000000001
  0.0000000000000000  0.5000000000000000  0.4500000000000001
  0.0000000000000000  0.5500000000000000  0.4000000000000001
  0.0500000000000000  0.5000000000000000  0.5000000000000000
  0.0500000000000000  0.5500000000000000  0.5500000000000000
  0.0000000000000000  0.5000000000000000  0.5500000000000000
  0.0000000000000000  0.5500000000000000  0.5000000000000000
  0.0500000000000000  0.5000000000000000  0.6000000000000002
  0.0500000000000000  0.5500000000000000  0.6500000000000001
  0.0000000000000000  0.5000000000000000  0.6500000000000001
  0.0000000000000000  0.5500000000000000  0.6000000000000002
  0.0500000000000000  0.5000000000000000  0.7000000000000002
  0.0500000000000000  0.5500000000000000  0.7500000000000001
  0.0000000000000000  0.5000000000000000  0.7500000000000001
  0.0000000000000000  0.5500000000000000  0.7000000000000002
  0.0500000000000000  0.5000000000000000  0.8000000000000002
  0.0500000000000000  0.5500000000000000  0.8500000000000001
  0.0000000000000000  0.5000000000000000  0.8500000000000001
  0.0000000000000000  0.5500000000000000  0.8000000000000002
  0.0500000000000000  0.5000000000000000  0.9000000000000001
  0.0500000000000000  0.5500000000000000  0.9500000000000001
  0.0000000000000000  0.5000000000000000  0.9500000000000001
  0.0000000000000000  0.5500000000000000  0.9000000000000001
  0.0500000000000000  0.6000000000000002  0.0000000000000000
  0.0500000000000000  0.6500000000000001  0.0500000000000000
  0.0000000000000000  0.6000000000000002  0.0500000000000000
  0.0000000000000000  0.6500000000000001  0.0000000000000000
  0.0500000000000000  0.6000000000000002  0.1000000000000000
  0.0500000000000000  0.6500000000000001  0.1500000000000000
  0.0000000000000000  0.6000000000000002  0.1500000000000000
  0.0000000000000000  0.6500000000000001  0.1000000000000000
  0.0500000000000000  0.6000000000000002  0.2000000000000000
  0.0500000000000000  0.6500000000000001  0.2500000000000000
  0.0000000000000000  0.6000000000000002  0.2500000000000000
  0.0000000000000000  0.6500000000000001  0.2000000000000000
  0.0500000000000000  0.6000000000000002  0.3000000000000001
  0.0500000000000000  0.6500000000000001  0.3500000000000001
  0.0000000000000000  0.6000000000000002  0.3500000000000001
  0.0000000000000000  0.6500000000000001  0.3000000000000001
  0.0500000000000000  0.6000000000000002  0.4000000000000001
  0.0500000000000000  0.6500000000000001  0.4500000000000001
  0.0000000000000000  0.6000000000000002  0.4500000000000001
  0.0000000000000000  0.6500000000000001  0.4000000000000001
  0.0500000000000000  0.6000000000000002  0.5000000000000000
  0.0500000000000000  0.6500000000000001  0.5500000000000000
  0.0000000000000000  0.6000000000000002  0.5500000000000000
  0.0000000000000000  0.6500000000000001  0.5000000000000000
  0.0500000000000000  0.6000000000000002  0.6000000000000002
  0.0500000000000000  0.6500000000000001  0.6500000000000001
  0.0000000000000000  0.6000000000000002  0.6500000000000001
  0.0000000000000000  0.6500000000000001  0.6000000000000002
  0.0500000000000000  0.6000000000000002  0.7000000000000002
  0.0500000000000000  0.6500000000000001  0.7500000000000001
  0.0000000000000000  0.6000000000000002  0.7500000000000001
  0.0000000000000000  0.6500000000000001  0.7000000000000002
  0.0500000000000000  0.6000000000000002  0.8000000000000002
  0.0500000000000000  0.6500000000000001  0.8500000000000001
  0.0000000000000000  0.6000000000000002  0.8500000000000001
  0.0000000000000000  0.6500000000000001  0.8000000000000002
  0.0500000000000000  0.6000000000000002  0.9000000000000001
  0.0500000000000000  0.6500000000000001  0.9500000000000001
  0.0000000000000000  0.6000000000000002  0.9500000000000001
  0.0000000000000000  0.6500000000000001  0.9000000000000001
  0.0500000000000000  0.7000000000000002  0.0000000000000000
  0.0500000000000000  0.7500000000000001  0.0500000000000000
  0.0000000000000000  0.7000000000000002  0.0500000000000000
  0.0000000000000000  0.7500000000000001  0.0000000000000000
  0.0500000000000000  0.7000000000000002  0.1000000000000000
  0.0500000000000000  0.7500000000000001  0.1500000000000000
  0.0000000000000000  0.7000000000000002  0.1500000000000000
  0.0000000000000000  0.7500000000000001  0.1000000000000000
  0.0500000000000000  0.7000000000000002  0.2000000000000000
  0.0500000000000000  0.7500000000000001  0.2500000000000000
  0.0000000000000000  0.7000000000000002  0.2500000000000000
  0.0000000000000000  0.7500000000000001  0.2000000000000000
  0.0500000000000000  0.7000000000000002  0.3000000000000001
  0.0500000000000000  0.7500000000000001  0.3500000000000001
  0.0000000000000000  0.7000000000000002  0.3500000000000001
  0.0000000000000000  0.7500000000000001  0.3000000000000001
  0.0500000000000000  0.7000000000000002  0.4000000000000001
  0.0500000000000000  0.7500000000000001  0.4500000000000001
  0.0000000000000000  0.7000000000000002  0.4500000000000001
  0.0000000000000000  0.7500000000000001  0.4000000000000001
  0.0500000000000000  0.7000000000000002  0.5000000000000000
  0.0500000000000000  0.7500000000000001  0.5500000000000000
  0.0000000000000000  0.7000000000000002  0.5500000000000000
  0.0000000000000000  0.7500000000000001  0.5000000000000000
  0.0500000000000000  0.7000000000000002  0.6000000000000002
  0.0500000000000000  0.7500000000000001  0.6500000000000001
  0.0000000000000000  0.7000000000000002  0.6500000000000001
  0.0000000000000000  0.7500000000000001  0.6000000000000002
  0.0500000000000000  0.7000000000000002  0.7000000000000002
  0.0500000000000000  0.7500000000000001  0.7500000000000001
  0.0000000000000000  0.7000000000000002  0.7500000000000001
  0.0000000000000000  0.7500000000000001  0.7000000000000002
  0.0500000000000000  0.7000000000000002  0.8000000000000002
  0.0500000000000000  0.7500000000000001  0.8500000000000001
  0.0000000000000000  0.7000000000000002  0.8500000000000001
  0.0000000000000000  0.7500000000000001  0.8000000000000002
  0.0500000000000000  0.7000000000000002  0.9000000000000001
  0.0500000000000000  0.7500000000000001  0.9500000000000001
  0.0000000000000000  0.7000000000000002  0.9500000000000001
  0.0000000000000000  0.7500000000000001  0.9000000000000001
  0.0500000000000000  0.8000000000000002  0.0000000000000000
  0.0500000000000000  0.8500000000000001  0.0500000000000000
  0.0000000000000000  0.8000000000000002  0.0500000000000000
  0.0000000000000000  0.8500000000000001  0.0000000000000000
  0.0500000000000000  0.8000000000000002  0.1000000000000000
  0.0500000000000000  0.8500000000000001  0.1500000000000000
  0.0000000000000000  0.8000000000000002  0.1500000000000000
  0.0000000000000000  0.8500000000000001  0.1000000000000000
  0.0500000000000000  0.8000000000000002  0.2000000000000000
  0.0500000000000000  0.8500000000000001  0.2500000000000000
  0.0000000000000000  0.8000000000000002  0.2500000000000000
  0.0000000000000000  0.8500000000000001  0.2000000000000000
  0.0500000000000000  0.8000000000000002  0.3000000000000001
  0.0500000000000000  0.8500000000000001  0.3500000000000001
  0.0000000000000000  0.8000000000000002  0.3500000000000001
  0.0000000000000000  0.8500000000000001  0.3000000000000001
  0.0500000000000000  0.8000000000000002  0.4000000000000001
  0.0500000000000000  0.8500000000000001  0.4500000000000001
  0.0000000000000000  0.8000000000000002  0.4500000000000001
  0.0000000000000000  0.8500000000000001  0.4000000000000001
  0.0500000000000000  0.8000000000000002  0.5000000000000000
  0.0500000000000000  0.8500000000000001  0.5500000000000000
  0.0000000000000000  0.8000000000000002  0.5500000000000000
  0.0000000000000000  0.8500000000000001  0.5000000000000000
  0.0500000000000000  0.8000000000000002  0.6000000000000002
  0.0500000000000000  0.8500000000000001  0.6500000000000001
  0.0000000000000000  0.8000000000000002  0.6500000000000001
  0.0000000000000000  0.8500000000000001  0.6000000000000002
  0.0500000000000000  0.8000000000000002  0.7000000000000002
  0.0500000000000000  0.8500000000000001  0.7500000000000001
  0.0000000000000000  0.8000000000000002  0.7500000000000001
  0.0000000000000000  0.8500000000000001  0.7000000000000002
  0.0500000000000000  0.8000000000000002  0.8000000000000002
  0.0500000000000000  0.8500000000000001  0.8500000000000001
  0.0000000000000000  0.8000000000000002  0.8500000000000001
  0.0000000000000000  0.8500000000000001  0.8000000000000002
  0.0500000000000000  0.8000000000000002  0.9000000000000001
  0.0500000000000000  0.8500000000000001  0.9500000000000001
  0.0000000000000000  0.8000000000000002  0.9500000000000001
  0.0000000000000000  0.8500000000000001  0.9000000000000001
  0.0500000000000000  0.9000000000000001  0.0000000000000000
  0.0500000000000000  0.9500000000000001  0.0500000000000000
  0.0000000000000000  0.9000000000000001  0.0500000000000000
  0.0000000000000000  0.9500000000000001  0.0000000000000000
  0.0500000000000000  0.9000000000000001  0.1000000000000000
  0.0500000000000000  0.9500000000000001  0.1500000000000000
  0.0000000000000000  0.9000000000000001  0.1500000000000000
  0.0000000000000000  0.9500000000000001  0.1000000000000000
  0.0500000000000000  0.9000000000000001  0.2000000000000000
  0.0500000000000000  0.9500000000000001  0.2500000000000000
  0.0000000000000000  0.9000000000000001  0.2500000000000000
  0.0000000000000000  0.9500000000000001  0.2000000000000000
  0.0500000000000000  0.9000000000000001  0.3000000000000001
  0.0500000000000000  0.9500000000000001  0.3500000000000001
  0.0000000000000000  0.9000000000000001  0.3500000000000001
  0.0000000000000000  0.9500000000000001  0.3000000000000001
  0.0500000000000000  0.9000000000000001  0.4000000000000001
  0.0500000000000000  0.9500000000000001  0.4500000000000001
  0.0000000000000000  0.9000000000000001  0.4500000000000001
  0.0000000000000000  0.9500000000000001  0.4000000000000001
  0.0500000000000000  0.9000000000000001  0.5000000000000000
  0.0500000000000000  0.9500000000000001  0.5500000000000000
  0.0000000000000000  0.9000000000000001  0.5500000000000000
  0.0000000000000000  0.9500000000000001  0.5000000000000000
  0.0500000000000000  0.9000000000000001  0.6000000000000002
  0.0500000000000000  0.9500000000000001  0.6500000000000001
  0.0000000000000000  0.9000000000000001  0.6500000000000001
  0.0000000000000000  0.9500000000000001  0.6000000000000002
  0.0500000000000000  0.9000000000000001  0.7000000000000002
  0.0500000000000000  0.9500000000000001  0.7500000000000001
  0.0000000000000000  0.9000000000000001  0.7500000000000001
  0.0000000000000000  0.9500000000000001  0.7000000000000002
  0.0500000000000000  0.9000000000000001  0.8000000000000002
  0.0500000000000000  0.9500000000000001  0.8500000000000001
  0.0000000000000000  0.9000000000000001  0.8500000000000001
  0.0000000000000000  0.9500000000000001  0.8000000000000002
  0.0500000000000000  0.9000000000000001  0.9000000000000001
  0.0500000000000000  0.9500000000000001  0.9500000000000001
  0.0000000000000000  0.9000000000000001  0.9500000000000001
  0.0000000000000000  0.9500000000000001  0.9000000000000001
  0.1500000000000000  0.0000000000000000  0.0000000000000000
  0.1500000000000000  0.0500000000000000  0.0500000000000000
  0.1000000000000000  0.0000000000000000  0.0500000000000000
  0.1000000000000000  0.0500000000000000  0.0000000000000000
  0.1500000000000000  0.0000000000000000  0.1000000000000000
  0.1500000000000000  0.0500000000000000  0.1500000000000000
  0.1000000000000000  0.0000000000000000  0.1500000000000000
  0.1000000000000000  0.0500000000000000  0.1000000000000000
  0.1500000000000000  0.0000000000000000  0.2000000000000000
  0.1500000000000000  0.0500000000000000  0.2500000000000000
  0.1000000000000000  0.0000000000000000  0.2500000000000000
  0.1000000000000000  0.0500000000000000  0.2000000000000000
  0.1500000000000000  0.0000000000000000  0.3000000000000001
  0.1500000000000000  0.0500000000000000  0.3500000000000001
  0.1000000000000000  0.0000000000000000  0.3500000000000001
  0.1000000000000000  0.0500000000000000  0.3000000000000001
  0.1500000000000000  0.0000000000000000  0.4000000000000001
  0.1500000000000000  0.0500000000000000  0.4500000000000001
  0.1000000000000000  0.0000000000000000  0.4500000000000001
  0.1000000000000000  0.0500000000000000  0.4000000000000001
  0.1500000000000000  0.0000000000000000  0.5000000000000000
  0.1500000000000000  0.0500000000000000  0.5500000000000000
  0.1000000000000000  0.0000000000000000  0.5500000000000000
  0.1000000000000000  0.0500000000000000  0.5000000000000000
  0.1500000000000000  0.0000000000000000  0.6000000000000002
  0.1500000000000000  0.0500000000000000  0.6500000000000001
  0.1000000000000000  0.0000000000000000  0.6500000000000001
  0.1000000000000000  0.0500000000000000  0.6000000000000002
  0.1500000000000000  0.0000000000000000  0.7000000000000002
  0.1500000000000000  0.0500000000000000  0.7500000000000001
  0.1000000000000000  0.0000000000000000  0.7500000000000001
  0.1000000000000000  0.0500000000000000  0.7000000000000002
  0.1500000000000000  0.0000000000000000  0.8000000000000002
  0.1500000000000000  0.0500000000000000  0.8500000000000001
  0.1000000000000000  0.0000000000000000  0.8500000000000001
  0.1000000000000000  0.0500000000000000  0.8000000000000002
  0.1500000000000000  0.0000000000000000  0.9000000000000001
  0.1500000000000000  0.0500000000000000  0.9500000000000001
  0.1000000000000000  0.0000000000000000  0.9500000000000001
  0.1000000000000000  0.0500000000000000  0.9000000000000001
  0.1500000000000000  0.1000000000000000  0.0000000000000000
  0.1500000000000000  0.1500000000000000  0.0500000000000000
  0.1000000000000000  0.1000000000000000  0.0500000000000000
  0.1000000000000000  0.1500000000000000  0.0000000000000000
  0.1500000000000000  0.1000000000000000  0.1000000000000000
  0.1500000000000000  0.1500000000000000  0.1500000000000000
  0.1000000000000000  0.1000000000000000  0.1500000000000000
  0.1000000000000000  0.1500000000000000  0.1000000000000000
  0.1500000000000000  0.1000000000000000  0.2000000000000000
  0.1500000000000000  0.1500000000000000  0.2500000000000000
  0.1000000000000000  0.1000000000000000  0.2500000000000000
  0.1000000000000000  0.1500000000000000  0.2000000000000000
  0.1500000000000000  0.1000000000000000  0.3000000000000001
  0.1500000000000000  0.1500000000000000  0.3500000000000001
  0.1000000000000000  0.1000000000000000  0.3500000000000001
  0.1000000000000000  0.1500000000000000  0.3000000000000001
  0.1500000000000000  0.1000000000000000  0.4000000000000001
  0.1500000000000000  0.1500000000000000  0.4500000000000001
  0.1000000000000000  0.1000000000000000  0.4500000000000001
  0.1000000000000000  0.1500000000000000  0.4000000000000001
  0.1500000000000000  0.1000000000000000  0.5000000000000000
  0.1500000000000000  0.1500000000000000  0.5500000000000000
  0.1000000000000000  0.1000000000000000  0.5500000000000000
  0.1000000000000000  0.1500000000000000  0.5000000000000000
  0.1500000000000000  0.1000000000000000  0.6000000000000002
  0.1500000000000000  0.1500000000000000  0.6500000000000001
  0.1000000000000000  0.1000000000000000  0.6500000000000001
  0.1000000000000000  0.1500000000000000  0.6000000000000002
  0.1500000000000000  0.1000000000000000  0.7000000000000002
  0.1500000000000000  0.1500000000000000  0.7500000000000001
  0.1000000000000000  0.1000000000000000  0.7500000000000001
  0.1000000000000000  0.1500000000000000  0.7000000000000002
  0.1500000000000000  0.1000000000000000  0.8000000000000002
  0.1500000000000000  0.1500000000000000  0.8500000000000001
  0.1000000000000000  0.1000000000000000  0.8500000000000001
  0.1000000000000000  0.1500000000000000  0.8000000000000002
  0.1500000000000000  0.1000000000000000  0.9000000000000001
  0.1500000000000000  0.1500000000000000  0.9500000000000001
  0.1000000000000000  0.1000000000000000  0.9500000000000001
  0.1000000000000000  0.1500000000000000  0.9000000000000001
  0.1500000000000000  0.2000000000000000  0.0000000000000000
  0.1500000000000000  0.2500000000000000  0.0500000000000000
  0.1000000000000000  0.2000000000000000  0.0500000000000000
  0.1000000000000000  0.2500000000000000  0.0000000000000000
  0.1500000000000000  0.2000000000000000  0.1000000000000000
  0.1500000000000000  0.2500000000000000  0.1500000000000000
  0.1000000000000000  0.2000000000000000  0.1500000000000000