K-Spacing Value to Generate K-Mesh: 0.010
0
Gamma
  18  14  11
0.0  0.0  0.0
