Ba4 S4 O16
1.0
        5.5569610596         0.0000000000         0.0000000000
        0.0000000000         7.2770690918         0.0000000000
        0.0000000000         0.0000000000         9.0182590485
   Ba    S    O
    4    4   16
Direct
     0.250000000         0.843389988         0.685738027
     0.750000000         0.156609997         0.314262003
     0.750000000         0.343389988         0.814261973
     0.250000000         0.656610012         0.185737997
     0.250000000         0.309641987         0.561713994
     0.750000000         0.690357983         0.438286006
     0.750000000         0.809642017         0.938286006
     0.250000000         0.190357998         0.061714001
     0.531256020         0.810333014         0.419959992
     0.031256001         0.189667001         0.580039978
     0.468744010         0.310333014         0.080040000
     0.968743980         0.689666986         0.919960022
     0.468744010         0.189667001         0.580039978
     0.968743980         0.810333014         0.419959992
     0.531256020         0.689666986         0.919960022
     0.031256001         0.310333014         0.080040000
     0.250000000         0.391018003         0.411718994
     0.750000000         0.608982027         0.588280976
     0.750000000         0.891017973         0.088280998
     0.250000000         0.108981997         0.911719024
     0.250000000         0.048953000         0.181149006
     0.750000000         0.951047003         0.818850994
     0.750000000         0.548952997         0.318850994
     0.250000000         0.451047003         0.681149006
