INCAR created by Atomic Simulation Environment
 GGA = PE
