Pt Pt Pt 
 1.0000000000000000
     3.5000000000000000    0.0000000000000000    0.0000000000000000
     0.0000000000000000    3.5000000000000000    0.0000000000000000
     0.0000000000000000    0.0000000000000000    3.5000000000000000
 Pt  Pt  Pt 
   1   1   2
Cartesian
  0.0000000000000000  0.0000000000000000  0.0000000000000000
  1.7500000000000000  1.7500000000000000  0.0000000000000000
  0.0000000000000000  1.7500000000000000  1.7500000000000000
  1.7500000000000000  0.0000000000000000  1.7500000000000000
