K-Spacing Value to Generate K-Mesh: 0.010
0
Gamma
  48  48  13
0.0  0.0  0.0
