B2 N2
1.0
        2.5124282837         0.0000000000         0.0000000000
       -1.2562141418         2.1758267189         0.0000000000
        0.0000000000         0.0000000000         7.7072649002
    B    N
    2    2
Direct
     0.666666687         0.333333343         0.750000000
     0.333333343         0.666666687         0.250000000
     0.666666687         0.333333343         0.250000000
     0.333333343         0.666666687         0.750000000
