poscar
1.0
11.5012468039 -9.6e-09 7.3e-09
-9.6e-09 11.5012468037 -3.1e-09
5.9e-09 -2.5e-09 9.201111486
Al Cu
8 4
Cartesian
4.025685 1.707751 -0.044947 Al
7.55687 9.58671 -0.164537 Al
3.909199 9.626304 4.767012 Al
7.715558 1.883655 4.658351 Al
9.7162 7.600948 4.529067 Al
1.93996 3.92082 4.652049 Al
9.673859 3.849469 -0.030154 Al
1.644893 7.866617 -0.049982 Al
0.065463 -0.092448 6.912748 Cu
0.078925 0.043596 2.515007 Cu
5.764227 5.88925 2.41215 Cu
5.711035 5.824798 6.958088 Cu
