poscar
1.0
14.9784300559 0.0 0.0
0.0 14.9784300559 0.0
0.0 0.0 14.9784300559
Al Cu
31 0
Cartesian
0.0 0.0 0.0 Al
11.170102 11.170102 7.489216 Al
0.0 11.23073 11.23073 Al
3.808329 7.489216 11.170102 Al
3.808329 11.170102 7.489216 Al
0.0 7.489216 7.489216 Al
7.489216 3.808329 11.170102 Al
11.23073 0.0 11.23073 Al
11.170102 3.808329 7.489216 Al
7.489216 0.0 7.489216 Al
0.0 3.747701 11.23073 Al
3.747701 0.0 11.23073 Al
3.808329 3.808329 7.489216 Al
0.0 0.0 7.489216 Al
11.170102 7.489216 11.170102 Al
7.489216 11.170102 3.808329 Al
11.23073 11.23073 0.0 Al
7.489216 7.489216 0.0 Al
0.0 11.23073 3.747701 Al
3.808329 7.489216 3.808329 Al
3.747701 11.23073 0.0 Al
0.0 7.489216 0.0 Al
7.489216 3.808329 3.808329 Al
11.23073 0.0 3.747701 Al
11.23073 3.747701 0.0 Al
7.489216 0.0 0.0 Al
0.0 3.747701 3.747701 Al
3.747701 0.0 3.747701 Al
3.747701 3.747701 0.0 Al
11.170102 7.489216 3.808329 Al
7.489216 11.170102 11.170102 Al
5.36184202 0.0 0.0
0.0 9.2869830346 0.0
0.0 0.0 70.8338972642
Al Cu
24 0
Cartesian
2.680921 1.547831 10.918133 Al
0.0 6.191322 10.918132 Al
0.0 3.095661 15.411212 Al
2.680921 7.739152 15.411213 Al
0.0 0.0 19.858239 Al
2.680921 4.643491 19.858239 Al
2.680921 1.547831 24.308814 Al
0.0 6.191322 24.308814 Al
0.0 3.095661 28.755199 Al
2.680921 7.739152 28.755199 Al
0.0 0.0 33.196289 Al
2.680921 4.643491 33.196289 Al
2.680921 1.547831 37.637636 Al
0.0 6.191322 37.637636 Al
0.0 3.095661 42.07868 Al
2.680921 7.739152 42.07868 Al
0.0 0.0 46.525073 Al
2.680921 4.643491 46.525073 Al
2.680921 1.547831 50.975668 Al
0.0 6.191322 50.975668 Al
0.0 3.095661 55.422683 Al
2.680921 7.739152 55.422683 Al
0.0 0.0 59.915759 Al
2.680921 4.643491 59.915759 Al
5.36184202 0.0 0.0
0.0 9.2869830346 0.0
0.0 0.0 70.8338972642
Al Cu
24 0
Cartesian
2.680921 1.547831 10.997529 Al
0.0 6.191322 10.997532 Al
0.0 3.095661 15.479103 Al
2.680921 7.739152 15.479101 Al
0.0 0.0 19.906264 Al
2.680921 4.643491 19.906266 Al
2.680921 1.547831 24.342763 Al
0.0 6.191322 24.342765 Al
0.0 3.095661 28.74291 Al
2.680921 7.739152 28.742911 Al
0.0 0.0 33.145645 Al
2.680921 4.643491 33.145644 Al
2.680921 8.977417 37.688146 Al
0.0 4.333926 37.688145 Al
0.0 1.238264 42.091093 Al
2.680921 5.881755 42.091091 Al
0.0 7.429586 46.491267 Al
2.680921 2.786095 46.491268 Al
2.680921 8.977417 50.927701 Al
0.0 4.333926 50.9277 Al
0.0 1.238264 55.354744 Al
2.680921 5.881755 55.354744 Al
0.0 7.429586 59.836219 Al
2.680921 2.786095 59.836218 Al
5.36184202 0.0 0.0
0.0 9.3150690347 0.0
0.0 0.0 62.4238632328
Al Cu
20 0
Cartesian
0.0 0.0 11.254679 Al
2.680921 4.502283 46.703674 Al
0.0 9.159816 46.703674 Al
0.0 2.949772 42.30183 Al
2.680921 7.607306 42.30183 Al
2.680921 1.39726 37.893651 Al
0.0 6.054794 37.893651 Al
2.680921 4.502283 33.455526 Al
0.0 9.159816 33.455526 Al
0.0 6.210046 28.968368 Al
2.680921 1.552512 28.968368 Al
2.680921 4.657534 24.530169 Al
0.0 0.0 24.530169 Al
2.680921 7.762556 20.122026 Al
0.0 3.105022 20.122026 Al
0.0 6.210046 15.720208 Al
2.680921 1.552512 15.720208 Al
2.680921 4.657534 11.254673 Al
0.0 6.054794 51.169184 Al
2.680921 1.39726 51.169184 Al
5.4211200202 0.0 0.0
0.0 9.389656035 0.0
0.0 0.0 62.6090812335
Al Cu
20 0
Cartesian
0.0 0.0 11.381918 Al
2.714466 4.704166 46.773842 Al
0.006092 0.001726 46.778205 Al
0.002777 3.137028 42.378571 Al
2.710555 7.82579 42.381145 Al
2.7161 1.566523 37.965082 Al
0.001261 6.258964 37.967956 Al
2.710842 4.693418 33.530218 Al
5.417747 0.005345 33.523199 Al
0.000396 6.26085 29.080666 Al
2.729563 1.583593 29.085073 Al
2.719872 4.697017 24.646196 Al
0.017516 0.024145 24.634288 Al
2.709913 7.841722 20.232719 Al
0.002521 3.127245 20.230177 Al
5.420573 6.278182 15.841087 Al
2.717729 1.571533 15.832747 Al
2.704838 4.697679 11.390883 Al
0.004353 6.260717 51.226443 Al
2.721639 1.582102 51.216425 Al
5.36184202 0.0 0.0
0.0 9.3150690347 0.0
0.0 0.0 62.4238632328
Al Cu
20 0
Cartesian
0.0 0.0 11.067913 Al
2.680921 3.477625 46.892868 Al
0.0 8.135159 46.892868 Al
0.0 1.925114 42.481255 Al
2.680921 6.582648 42.481255 Al
2.680921 0.372603 38.049492 Al
0.0 5.030137 38.049492 Al
2.680921 3.477625 33.591922 Al
0.0 8.135159 33.591922 Al
0.0 6.210046 28.831959 Al
2.680921 1.552512 28.831953 Al
2.680921 4.657534 24.374533 Al
0.0 0.0 24.374533 Al
2.680921 7.762556 19.942683 Al
0.0 3.105022 19.942683 Al
0.0 6.210046 15.530876 Al
2.680921 1.552512 15.530882 Al
2.680921 4.657534 11.067913 Al
0.0 5.030137 51.355794 Al
2.680921 0.372603 51.3558 Al
