K-Spacing Value to Generate K-Mesh: 0.050
0
Gamma
   4   4   4
0.0  0.0  0.0
