Hf4 O8
1.0
        5.1423192024         0.0000000000         0.0000000000
        0.0000000000         5.1951479912         0.0000000000
       -0.8950477484         0.0000000000         5.2502927677
   Hf    O
    4    8
Direct
     0.724040985         0.457318991         0.292109013
     0.275959015         0.957319021         0.207891002
     0.275959015         0.542680979         0.707890987
     0.724040985         0.042681001         0.792109013
     0.551113009         0.742603004         0.022291999
     0.448886991         0.242603004         0.477708012
     0.448886991         0.257396996         0.977707982
     0.551113009         0.757396996         0.522292018
     0.932151020         0.330121994         0.652906001
     0.067849003         0.830121994         0.847093999
     0.067849003         0.669878006         0.347093999
     0.932151020         0.169878006         0.152906001
